(declare-fun bvlambda_66_ () (_ BitVec 1))
(declare-fun a161 () (Array (_ BitVec 1) (_ BitVec 6)))
(assert
(let (($e10 (_ bv0 6)))
(let (($e207 (store a161  (not false) $e10 )))
(let (($e209 (select $e207 (not   bvlambda_66_))))
             (   extract        $e209)
                                                                                                                                                                                                                                                                                                                                                                                                                                                                                                                                                                                                                                                                                                                                                                                                                                                                                                                                                                                                                                                                                                                                                                                                                                                                                                                                                                                                                                                                                                                                                                                                                                                                                                                                                                                                                                                                                                                                                                                                                                                                                                                                                                                                                                                                                                                                                                                                                                                                       ) )                                                                                                                   )         )
